Maximize
  3.86197e-05 Z_684_0_0 + 0.0124459189840777 Z_684_0_1
   + 0.8233883966920512 Z_684_0_2 + 0.00160985800938178 Z_684_0_3
   + 0.0625172065932871 Z_684_0_4 + 7.06969e-05 Z_335_0_0
   + 0.00330471817237003 Z_335_0_1 + 0.8469762729222987 Z_335_0_2
   + 0.00108695150772396 Z_335_0_3 + 0.048561360457077 Z_335_0_4 + [
   0.4 Z_684_0_0 * Z_335_0_0 + 0.4 Z_684_0_1 * Z_335_0_1
   + 0.4 Z_684_0_2 * Z_335_0_2 + 0.4 Z_684_0_3 * Z_335_0_3 ] / 2 
Subject To
 constraint1_6840: Z_684_0_0 + Z_684_0_1 + Z_684_0_2 + Z_684_0_3
   + Z_684_0_4 <= 1
 constraint1_3350: Z_335_0_0 + Z_335_0_1 + Z_335_0_2 + Z_335_0_3
   + Z_335_0_4 <= 1
 constraint2_6840: Z_684_0_0 <= 1
 constraint2_6841: Z_684_0_1 <= 1
 constraint2_6842: Z_684_0_2 <= 1
 constraint2_6843: Z_684_0_3 <= 1
 constraint2_3350: Z_335_0_0 <= 1
 constraint2_3351: Z_335_0_1 <= 1
 constraint2_3352: Z_335_0_2 <= 1
 constraint2_3353: Z_335_0_3 <= 1
Bounds
Binaries
 Z_684_0_0 Z_684_0_1 Z_684_0_2 Z_684_0_3 Z_684_0_4 Z_335_0_0 Z_335_0_1
 Z_335_0_2 Z_335_0_3 Z_335_0_4
End
